NAME : portcgen-28-2
COMMENT : portcgen N=28, seed=2
TYPE : TSP
DIMENSION : 28
EDGE_WEIGHT_TYPE : EUC_2D
NODE_COORD_SECTION
1 279619 78575
2 477422 127310
3 -27474 -47733
4 -196628 -113912
5 -99741 -130121
6 226892 -273405
7 197158 151056
8 -359597 -84655
9 253236 -62033
10 -68163 211134
11 64149 28584
12 181338 306380
13 -166576 150373
14 -23349 -193010
15 24421 -34426
16 24229 -7919
17 -74353 160000
18 73038 -306644
19 424433 -67073
20 -225020 208758
21 -172462 -170511
22 184752 240010
23 76215 17145
24 -200412 204816
25 90161 -37157
26 145660 221234
27 186574 68540
28 100144 -385308
